%chk=OniomModel.chk                                  
%mem=30GB                                            
%nprocshared=24                                       
#p oniom(pbe1pbe/6-31+g* em=gd3bj:pm6) opt freq

mo_20240222_0m

0 1 0 1 0 1
 O                0   -1.34418300   -0.74965400    7.61771400 H
 H                0   -1.15056600   -0.80026400    8.56783400 H
 N                0   -0.30863700    0.22726300    1.42238500 H
 H                0    0.44232500    0.79612800    1.03788800 H
 O                0    0.86019100   -0.35197300    7.68862500 H
 C                0   -0.30011200    0.09199800    2.79012800 H
 C                0    0.91124200    0.17948600    3.50182800 H
 H                0    1.83078400    0.40251300    2.95461600 H
 C                0    0.93472500   -0.00685900    4.86614200 H
 H                0    1.87289200    0.05959200    5.41472700 H
 C                0   -1.48139600   -0.20407800    3.49928800 H
 H                0   -2.42340400   -0.26941900    2.95794700 H
 C                0   -0.24418500   -0.28932900    5.57750600 H
 C                0   -1.45188800   -0.38275100    4.86765600 H
 H                0   -2.37506200   -0.59542400    5.39960400 H
 C                0   -0.15481100   -0.45238600    7.02057200 H
 H                0   -1.21081900    0.44530700    0.99591600 H
 O               -1    4.66528300    2.08295500    3.33977400 M
 H               -1    4.46441900    2.57900000    2.68014600 M
 O               -1    4.79177300   -1.35116500    6.79208800 M
 O               -1   -2.32889200   -3.73211700    5.13295400 M
 O               -1    5.56269700   -0.54407300    3.30766100 M
 H               -1    5.34593300    0.17757200    2.94919100 M
 O               -1    3.97052900    0.37578600    5.46054600 M
 O               -1    2.10654200   -3.27370200    5.16978900 M
 O               -1   -4.14442700   -3.66149800    6.58973900 M
 O               -1   -4.88302000   -0.43961200    5.01750000 M
 O               -1   -1.10187900   -4.97412900    2.96832400 M
 H               -1   -1.87376500   -4.88612300    2.74043400 M
 O               -1    4.05242000   -3.03840800    3.09762800 M
 H               -1    3.95978800   -2.64004800    2.36396400 M
 O               -1    0.91403600   -4.73187200    6.56439300 M
 O               -1    1.33863700    3.63948800    5.38789500 M
 O               -1   -2.99201900    3.25964100    5.02416800 M
 O               -1   -2.57178400    4.73420300    2.79207200 M
 H               -1   -2.23656700    5.15007100    2.14398500 M
 O               -1    1.78150000   -4.94532300    2.99878800 M
 H               -1    2.21941900   -4.23057300    3.04548500 M
 O               -1   -5.76255100    1.26687700    6.34419900 M
 O               -1    0.30659500    4.76796800    2.93978500 M
 H               -1    1.10441500    4.53446500    3.05887100 M
 O               -1   -1.97749800    4.86705100    6.36618600 M
 O               -1    3.15013900    3.66463800    6.84529300 M
 O               -1    2.96308000    4.42892600    3.27311800 M
 H               -1    3.25714800    5.20230400    3.12628900 M
 O               -1   -5.65783800   -2.31906300    2.97620500 M
 H               -1   -6.42536900   -2.34223000    3.31690400 M
 O               -1   -3.96096600   -4.69884200    3.08180500 M
 H               -1   -4.04766800   -5.52962200    3.16591100 M
 O               -1   -4.83553700    3.06805800    2.76669400 M
 H               -1   -4.14790600    3.54841000    2.72628800 M
 O               -1   -6.08395800   -1.82115600    7.95477800 M
 H               -1   -6.24761900   -2.61000400    8.19232100 M
 O               -1   -5.09794700    3.93506300    7.62572100 M
 H               -1   -5.65171700    3.95381900    8.25709200 M
 O               -1    4.36102400   -3.97158100    7.97157900 M
 H               -1    3.97436800   -4.67716200    8.21441700 M
 O               -1   -6.17456300    0.48520600    2.78924500 M
 H               -1   -5.98427400   -0.30633300    2.99522000 M
 O               -1    0.32610300    5.81645100    7.94096800 M
 H               -1   -0.31598000    6.35649600    7.98137400 M
 C               -1   -3.59658400   -4.28724200    5.43780300 M
 H               -1   -3.50483500   -5.26947300    5.59945600 M
 C               -1    5.20143300   -1.35362600    4.42820300 M
 H               -1    5.92799600   -2.02365300    4.58145000 M
 C               -1    5.05355900   -0.50811000    5.68410100 M
 H               -1    5.89139000    0.01410400    5.84410300 M
 C               -1   -4.48241900    1.94424100    6.35947000 M
 H               -1   -3.75755400    1.25554700    6.32773100 M
 C               -1    4.12231200    1.79349300    5.64539600 M
 H               -1    5.07925400    2.01265200    5.83618700 M
 C               -1   -2.67950300    4.62378500    5.16116400 M
 H               -1   -3.52292600    5.16055900    5.15348800 M
 O               -1   -1.20148400   -5.64201400    8.13103600 M
 H               -1   -0.50397900   -5.94611300    8.48623700 M
 C               -1   -5.06137300   -1.84067300    5.27466200 M
 H               -1   -6.01962800   -2.02316600    5.49556300 M
 C               -1    1.72227000   -4.61292600    5.40917600 M
 H               -1    2.54393800   -5.16997000    5.52940300 M
 C               -1   -1.15680200   -4.52275300    5.31680600 M
 H               -1   -1.40996000   -5.47973500    5.46166500 M
 C               -1    3.90820000   -2.10108900    4.17127300 M
 H               -1    3.19292300   -1.44267000    3.93608500 M
 C               -1   -4.69656300    2.12530400    3.83392700 M
 H               -1   -3.95261300    1.49578400    3.61047100 M
 C               -1    3.69511300    2.42927000    4.33587900 M
 H               -1    2.81445500    2.03879700    4.06707600 M
 C               -1    3.53398400   -2.05582600    6.69026300 M
 H               -1    2.78872300   -1.38961200    6.68004900 M
 C               -1   -0.50077200    4.27437600    4.01306400 M
 H               -1   -0.66772600    3.29781000    3.87349000 M
 C               -1   -4.50165000   -4.04440500    4.23025000 M
 H               -1   -5.39772600   -4.44388200    4.42497800 M
 C               -1   -4.68622300   -2.56028000    3.98142500 M
 H               -1   -3.81370000   -2.19012700    3.66399400 M
 C               -1   -0.34061000   -4.01621000    6.49670700 M
 H               -1   -0.15275200   -3.04317500    6.36723800 M
 C               -1   -5.95221300    0.46252600    5.19338800 M
 H               -1   -6.80885200   -0.04591900    5.27808000 M
 C               -1    3.47575200   -2.88331700    5.40527400 M
 H               -1    4.04608000   -3.69922300    5.50314000 M
 C               -1    3.52795200    3.92797400    4.48339700 M
 H               -1    4.41821000    4.35366700    4.64382000 M
 C               -1   -0.35780500   -4.38775800    4.03470700 M
 H               -1   -0.20525800   -3.41959100    3.83896600 M
 C               -1    0.97960000   -5.09099100    4.17098000 M
 H               -1    0.79537100   -6.06626900    4.29013500 M
 C               -1   -1.82270400    5.01298700    3.97680200 M
 H               -1   -1.64306100    5.99634200    4.01944000 M
 C               -1   -5.99483700    1.33374300    3.92959000 M
 H               -1   -6.76449500    1.96826700    3.99231100 M
 C               -1   -0.74852700    4.12607400    6.49876600 M
 H               -1   -0.94769900    3.14585400    6.47502300 M
 C               -1   -4.36064800    2.83229400    5.13165600 M
 H               -1   -4.95188000    3.63216000    5.23813300 M
 C               -1    3.42261300   -2.90042300    7.94545900 M
 H               -1    3.56856700   -2.32385700    8.73717800 M
 H               -1    2.50651100   -3.27132700    8.00598600 M
 C               -1   -4.18028300   -2.22325100    6.46166800 M
 H               -1   -3.25183100   -1.89177900    6.29400000 M
 C               -1    0.18530200    4.47621500    5.35675500 M
 H               -1    0.46774700    5.43187300    5.44244100 M
 C               -1    2.59511800    4.20630900    5.66883300 M
 H               -1    2.49198700    5.19491800    5.78000900 M
 C               -1    3.24528000    2.23034700    6.81389000 M
 H               -1    2.32521600    1.90093000    6.60103400 M
 C               -1   -4.67033400   -1.65906800    7.77818300 M
 H               -1   -4.19727900   -2.11106100    8.52098600 M
 H               -1   -4.44764700   -0.69472500    7.81976600 M
 C               -1   -4.36717200    2.70634900    7.66937200 M
 H               -1   -4.71418500    2.14464300    8.40741100 M
 H               -1   -3.41375500    2.89847100    7.85424100 M
 C               -1   -1.01809200   -4.21156200    7.83574700 M
 H               -1   -0.46816300   -3.79633000    8.54666600 M
 H               -1   -1.89952000   -3.76085800    7.82763000 M
 C               -1   -0.17379600    4.49374200    7.86570000 M
 H               -1   -0.88102200    4.38049300    8.54970200 M
 H               -1    0.55796900    3.86329200    8.08426800 M
 O               -1    5.07814500    1.82303500    8.34154800 M
 H               -1    5.16789000    2.61482700    8.60739000 M
 C               -1    3.65288800    1.52770500    8.16492700 M
 H               -1    3.12379400    1.88913900    8.92040000 M
 H               -1    3.50204500    0.55024900    8.11050100 M
 O               -1  -13.39815900   -2.27393200   -3.43304300 M
 H               -1  -13.27040500   -2.76973200   -4.11081700 M
 O               -1  -13.14750600    1.15892300    0.01374300 M
 O               -1   -6.24997900    3.54062700   -2.41083200 M
 O               -1  -14.29367400    0.35308900   -3.36618100 M
 H               -1  -14.11719100   -0.36841600   -3.74641300 M
 O               -1  -12.47633500   -0.56752400   -1.40001600 M
 O               -1  -10.65507600    3.08210700   -1.89089200 M
 O               -1   -4.28646700    3.46951200   -1.16065800 M
 O               -1   -3.72382100    0.24821200   -2.80521100 M
 O               -1   -7.70571200    4.78340300   -4.42835200 M
 H               -1   -6.96316900    4.69549900   -4.73906300 M
 O               -1  -12.81514200    2.84753400   -3.73868400 M
 H               -1  -12.80304300    2.44944500   -4.47822000 M
 O               -1   -9.31752800    4.53979500   -0.63406000 M
 O               -1   -9.86811100   -3.83114700   -1.76031900 M
 O               -1   -5.60290100   -3.45108100   -2.59380500 M
 O               -1   -6.26387300   -4.92483200   -4.76733600 M
 H               -1   -6.66784600   -5.34047300   -5.37516800 M
 O               -1  -10.56849000    4.75453100   -4.08378100 M
 H               -1  -10.99882200    4.03975100   -3.98988300 M
 O               -1   -2.70494800   -1.45874500   -1.58291500 M
 O               -1   -9.10899900   -4.95870800   -4.30675700 M
 H               -1   -9.88907900   -4.72526400   -4.10132800 M
 O               -1   -6.46512100   -5.05900200   -1.14978300 M
 O               -1  -11.50995500   -3.85686600   -0.11415100 M
 O               -1  -11.71341200   -4.61984500   -3.68570900 M
 H               -1  -12.02174900   -5.39317500   -3.79989100 M
 O               -1   -3.17599500    2.12842900   -4.91811900 M
 H               -1   -2.37589900    2.15148600   -4.66310700 M
 O               -1   -4.85129800    4.50813100   -4.62730500 M
 H               -1   -4.75582800    5.33888600   -4.55285300 M
 O               -1   -4.01634200   -3.25863200   -5.03871500 M
 H               -1   -4.70438900   -3.73898700   -5.00409500 M
 O               -1   -2.20965000    1.62856800   -0.01572500 M
 H               -1   -2.02116800    2.41749000    0.20270100 M
 O               -1   -3.22595200   -4.12741200   -0.23755900 M
 H               -1   -2.60665900   -4.14638700    0.32967900 M
 O               -1  -12.59060100    3.77892000    1.14020300 M
 H               -1  -12.17976400    4.48442000    1.33970500 M
 O               -1   -2.68278600   -0.67576200   -5.16131600 M
 H               -1   -2.84947300    0.11569800   -4.93553600 M
 O               -1   -8.58335500   -6.00902400    0.66637300 M
 H               -1   -7.94060500   -6.54906700    0.63634600 M
 C               -1   -4.95669900    4.09566200   -2.24577700 M
 H               -1   -5.03026100    5.07783200   -2.07472700 M
 C               -1  -13.81230100    1.16224300   -2.29140600 M
 H               -1  -14.51781700    1.83220000   -2.05962800 M
 C               -1  -13.52842500    0.31627200   -1.05941900 M
 H               -1  -14.34383300   -0.20601800   -0.80923400 M
 C               -1   -3.97580000   -2.13613900   -1.42844000 M
 H               -1   -4.69969200   -1.44744500   -1.38073000 M
 C               -1  -12.60699300   -1.98529800   -1.20024600 M
 H               -1  -13.53743900   -2.20454600   -0.90636100 M
 C               -1   -5.89864900   -4.81528100   -2.42405800 M
 H               -1   -5.06109900   -5.35203600   -2.52382200 M
 O               -1   -7.04392400    5.44940200    0.69298200 M
 H               -1   -7.69844700    5.75336100    1.12220400 M
 C               -1   -3.51837100    1.64918600   -2.56851600 M
 H               -1   -2.54174300    1.83161800   -2.45331900 M
 C               -1  -10.24687300    4.42125400   -1.69433500 M
 H               -1  -11.05062800    4.97823500   -1.48504900 M
 C               -1   -7.39512800    4.33116900   -2.10001700 M
 H               -1   -7.12766900    5.28810300   -1.98326700 M
 C               -1  -12.55486600    1.90982300   -2.68749600 M
 H               -1  -11.86950200    1.25150400   -2.99949200 M
 C               -1   -4.03823500   -2.31627500   -3.96234300 M
 H               -1   -4.80209700   -1.68668800   -4.10314300 M
 C               -1  -12.32509700   -2.62058800   -2.54876000 M
 H               -1  -11.47897900   -2.23000000   -2.91181400 M
 C               -1  -11.90829800    1.86364600   -0.22432500 M
 H               -1  -11.16850400    1.19745500   -0.31596400 M
 C               -1   -8.18944000   -4.46549200   -3.32770000 M
 H               -1   -8.03867500   -3.48887200   -3.48428400 M
 C               -1   -4.18866200    3.85328500   -3.54488100 M
 H               -1   -3.27669000    4.25270900   -3.44884300 M
 C               -1   -4.03234100    2.36925500   -3.81288400 M
 H               -1   -4.93427500    1.99920000   -4.03345000 M
 C               -1   -8.07775000    3.82418200   -0.83836800 M
 H               -1   -8.27872100    2.85118700   -0.94693800 M
 C               -1   -2.64184500   -0.65396800   -2.74724800 M
 H               -1   -1.78096900   -0.14553400   -2.75625900 M
 C               -1  -11.99046600    2.69160800   -1.50770100 M
 H               -1  -12.54671200    3.50746700   -1.34795100 M
 C               -1  -12.14288100   -4.11934300   -2.42089000 M
 H               -1  -13.01035600   -4.54511200   -2.16453500 M
 C               -1   -8.32902200    4.19663000   -3.28743600 M
 H               -1   -8.50211700    3.22852800   -3.46573100 M
 C               -1   -9.64368900    4.89978300   -3.00592700 M
 H               -1   -9.44745000    5.87502500   -2.90721300 M
 C               -1   -6.87935200   -5.20406300   -3.50811500 M
 H               -1   -7.05339600   -6.18744200   -3.44650300 M
 C               -1   -2.73725400   -1.52472200   -4.00848000 M
 H               -1   -1.96525800   -2.15925100   -4.03026700 M
 C               -1   -7.67220300   -4.31809400   -0.88376300 M
 H               -1   -7.47688600   -3.33786500   -0.92871200 M
 C               -1   -4.23060300   -3.02374200   -2.63599500 M
 H               -1   -3.63130300   -3.82363500   -2.59489200 M
 C               -1  -11.66065000    2.70779000    1.01155500 M
 H               -1  -11.71954300    2.13092800    1.81426100 M
 H               -1  -10.74350100    3.07868600    0.97200200 M
 C               -1   -4.26490900    2.03128100   -1.29240800 M
 H               -1   -5.20601600    1.69988400   -1.35798300 M
 C               -1   -8.72496000   -4.66783600   -1.91730400 M
 H               -1   -8.99650100   -5.62353500   -1.80168500 M
 C               -1  -11.08639300   -4.39809200   -1.34430300 M
 H               -1  -10.97177700   -5.38674000   -1.24539300 M
 C               -1  -11.60782300   -2.42256200   -0.13447600 M
 H               -1  -10.71653800   -2.09305300   -0.44623100 M
 C               -1   -3.63428000    1.46660500   -0.03736800 M
 H               -1   -4.02344800    1.91840600    0.75273200 M
 H               -1   -3.85103300    0.50229800    0.02793600 M
 C               -1   -3.94759000   -2.89872800   -0.11406000 M
 H               -1   -3.52218300   -2.33728500    0.58196000 M
 H               -1   -4.87507800   -3.09093300    0.17355900 M
 C               -1   -7.25843900    4.01905400    0.41892000 M
 H               -1   -7.72760500    3.60355100    1.18539600 M
 H               -1   -6.38305700    3.56837400    0.31460000 M
 C               -1   -8.09451300   -4.68627400    0.53754000 M
 H               -1   -7.31703900   -4.57326300    1.14042200 M
 H               -1   -8.79818000   -4.05592100    0.83480800 M
 O               -1  -13.26333500   -2.01584900    1.58402500 M
 H               -1  -13.32358300   -2.80774000    1.85777700 M
 C               -1  -11.86581700   -1.72042600    1.25320300 M
 H               -1  -11.25743300   -2.08212200    1.94636200 M
 H               -1  -11.72168700   -0.74294300    1.18301000 M
 O               -1   -0.71133300   -4.85414700    0.34742100 M
 H               -1   -0.54772300   -4.34748600    1.00927000 M
 O               -1   -0.58321400   -8.27288200   -3.12006700 M
 O               -1    6.69477000  -10.12619900   -1.47030900 M
 O               -1   -1.41133000   -7.54064000    0.36776900 M
 H               -1   -1.24865400   -6.80649300    0.72946300 M
 O               -1    0.10783700   -6.49565900   -1.78076600 M
 O               -1    2.23754100   -9.99801900   -1.50584500 M
 O               -1    8.49981900   -9.91461200   -2.92646900 M
 O               -1    8.99755600   -6.65378700   -1.33987500 M
 O               -1    5.56365800  -11.46539900    0.68860500 M
 H               -1    6.32692300  -11.32136600    0.91700900 M
 O               -1    0.27990800   -9.91693300    0.56701600 M
 H               -1    0.34284500   -9.51604600    1.30245000 M
 O               -1    3.53473300  -11.35749800   -2.90668800 M
 O               -1    2.49030300   -3.04601000   -1.69324900 M
 O               -1    6.83726600   -3.10505900   -1.33049400 M
 O               -1    6.30913700   -1.67563200    0.90803300 M
 H               -1    5.94409100   -1.28865600    1.55789800 M
 O               -1    2.68608500  -11.65049700    0.65779500 M
 H               -1    2.19632900  -10.97001300    0.61418700 M
 O               -1    9.74781500   -4.88088600   -2.65886900 M
 O               -1    3.43616400   -1.85489600    0.75999800 M
 H               -1    2.65785100   -2.14642900    0.63974900 M
 O               -1    5.70604400   -1.57144400   -2.66555700 M
 O               -1    0.68168900   -3.14890600   -3.15081900 M
 O               -1    0.81206900   -2.38866700    0.42471900 M
 H               -1    0.46134600   -1.63971500    0.57490000 M
 O               -1    9.91003700   -8.47957100    0.69321500 M
 H               -1   10.67711500   -8.44421200    0.35254300 M
 O               -1    8.39441600  -10.97821400    0.57681300 M
 H               -1    8.54251300  -11.79989000    0.48904800 M
 O               -1    8.69028800   -3.16929900    0.92641300 M
 H               -1    7.96891600   -2.74148000    0.96883100 M
 O               -1   10.29721600   -7.92940300   -4.28303700 M
 H               -1   10.51892400   -8.70287400   -4.52404000 M
 O               -1    8.88684000   -2.26373100   -3.92868800 M
 H               -1    9.43758900   -2.20114300   -4.55987900 M
 O               -1    0.04059900  -10.84886800   -4.31106500 M
 H               -1    0.47850700  -11.52273200   -4.55695700 M
 O               -1   10.21727800   -5.64554400    0.89266000 M
 H               -1   10.08621600   -6.44810200    0.68315500 M
 O               -1    3.33808500   -0.78864400   -4.23650200 M
 H               -1    3.93831700   -0.20226900   -4.27441500 M
 C               -1    8.00010900  -10.58437200   -1.77740200 M
 H               -1    7.98147200  -11.56997800   -1.94341300 M
 C               -1   -0.99117400   -8.31619000   -0.75628300 M
 H               -1   -1.66604000   -9.03759900   -0.91261100 M
 C               -1   -0.90665500   -7.45648600   -2.00840600 M
 H               -1   -1.78095300   -6.99718000   -2.16623400 M
 C               -1    8.42094600   -4.30032100   -2.67135500 M
 H               -1    7.74918900   -5.04103700   -2.64278100 M
 C               -1   -0.14875900   -5.09232000   -1.95936900 M
 H               -1   -1.11935600   -4.94393300   -2.14934600 M
 C               -1    6.42436300   -1.76727400   -1.46150600 M
 H               -1    7.22563100   -1.16943400   -1.45131800 M
 O               -1    5.71169900  -12.10121100   -4.47699300 M
 H               -1    5.03862500  -12.45465700   -4.83365100 M
 C               -1    9.27934000   -8.03659900   -1.60320200 M
 H               -1   10.24845900   -8.14650300   -1.82475100 M
 C               -1    2.72009100  -11.30396400   -1.75108900 M
 H               -1    1.94200400  -11.91990700   -1.87391400 M
 C               -1    5.58454900  -11.00080900   -1.65784900 M
 H               -1    5.90799800  -11.93571700   -1.80689700 M
 C               -1    0.35400100   -8.96675800   -0.50244900 M
 H               -1    1.01848600   -8.25812400   -0.26423400 M
 C               -1    8.62147900   -4.11503700   -0.14500100 M
 H               -1    7.92633000   -4.79900800    0.07554700 M
 C               -1    0.23030000   -4.43239300   -0.64698200 M
 H               -1    1.13755000   -4.75762600   -0.37976500 M
 C               -1    0.72341200   -8.88271100   -3.02115200 M
 H               -1    1.41718500   -8.16308400   -3.00787000 M
 C               -1    4.27775500   -2.28246600   -0.31532100 M
 H               -1    4.51673800   -3.24455800   -0.18004000 M
 C               -1    8.88485800  -10.28038700   -0.56863800 M
 H               -1    9.80807500  -10.61140500   -0.76498400 M
 C               -1    8.95883500   -8.78777300   -0.31322100 M
 H               -1    8.06130200   -8.48479300    0.00570000 M
 C               -1    4.73282600  -10.55101400   -2.83563200 M
 H               -1    4.47330400   -9.59518500   -2.70189200 M
 C               -1    9.99682900   -5.67402800   -1.51159600 M
 H               -1   10.88882100   -6.11712500   -1.59839500 M
 C               -1    0.84309900   -9.70927400   -1.73982600 M
 H               -1    0.33487100  -10.56481100   -1.84139300 M
 C               -1    0.28578500   -2.92476600   -0.78785800 M
 H               -1   -0.63365300   -2.56561600   -0.94652900 M
 C               -1    4.77794900  -10.93114600   -0.37529600 M
 H               -1    4.55401100   -9.97784400   -0.17530000 M
 C               -1    3.49639100  -11.73107300   -0.51489800 M
 H               -1    3.75246300  -12.68945500   -0.63833500 M
 C               -1    5.54124100   -1.44796600   -0.27557500 M
 H               -1    5.28911600   -0.48047300   -0.31389300 M
 C               -1    9.97489500   -4.80764800   -0.24395000 M
 H               -1   10.69533600   -4.11749000   -0.30373800 M
 C               -1    4.53542300   -2.40098000   -2.80161400 M
 H               -1    4.80678700   -3.36381400   -2.78217300 M
 C               -1    8.23381500   -3.42919100   -1.43964500 M
 H               -1    8.76404600   -2.58719500   -1.54248700 M
 C               -1    0.89694300   -9.71115600   -4.28005300 M
 H               -1    0.70847800   -9.14351400   -5.06923800 M
 H               -1    1.83803300  -10.01278600   -4.34206900 M
 C               -1    8.42887300   -8.47825000   -2.79203300 M
 H               -1    7.47841200   -8.21733200   -2.62305300 M
 C               -1    3.57837400   -2.12615300   -1.65821900 M
 H               -1    3.22577900   -1.19371800   -1.73972400 M
 C               -1    1.19517900   -2.57275100   -1.97188400 M
 H               -1    1.22464800   -1.57873300   -2.07867000 M
 C               -1    0.69324700   -4.58642700   -3.12577500 M
 H               -1    1.63525300   -4.84760100   -2.91422600 M
 C               -1    8.87549100   -7.87344200   -4.10595900 M
 H               -1    8.43715800   -8.35600200   -4.85083200 M
 H               -1    8.58185300   -6.92810700   -4.14331400 M
 C               -1    8.24924900   -3.54308000   -3.97789300 M
 H               -1    8.63686500   -4.07421800   -4.71835200 M
 H               -1    7.28417400   -3.42142000   -4.16206700 M
 C               -1    5.42271600  -10.68963100   -4.17541100 M
 H               -1    4.84337400  -10.31321200   -4.88457700 M
 H               -1    6.26827100  -10.17480400   -4.16515600 M
 C               -1    3.93477000   -2.07093100   -4.16700300 M
 H               -1    4.64833700   -2.12836300   -4.85138300 M
 H               -1    3.25176800   -2.75297100   -4.38847700 M
 O               -1   -1.10459200   -5.12186200   -4.65552100 M
 H               -1   -1.25288800   -4.33774500   -4.91787400 M
 C               -1    0.33868000   -5.31139600   -4.47997300 M
 H               -1    0.83937100   -4.90836000   -5.23375300 M
 H               -1    0.56164700   -6.27519600   -4.42984500 M
 O               -1   -1.21176600    8.61512700    0.37724700 M
 H               -1   -1.04815600    9.12178800    1.03909600 M
 O               -1   -1.08364700    5.19639100   -3.09024100 M
 O               -1    6.19433700    3.34307500   -1.44048400 M
 O               -1   -1.91176300    5.92863400    0.39759400 M
 H               -1   -1.74908700    6.66278100    0.75928900 M
 O               -1   -0.39259600    6.97361500   -1.75094000 M
 O               -1    1.73710800    3.47125500   -1.47601900 M
 O               -1    7.99938600    3.55466100   -2.89664300 M
 O               -1    8.49712300    6.81548700   -1.31004900 M
 O               -1    5.06322500    2.00387500    0.71843100 M
 H               -1    5.82649000    2.14790800    0.94683500 M
 O               -1   -0.22052500    3.55234100    0.59683900 M
 H               -1   -0.15758800    3.95322800    1.33227600 M
 O               -1    3.03430000    2.11177600   -2.87686300 M
 O               -1    1.98987000   10.42326400   -1.66342300 M
 O               -1    6.33683300   10.36421400   -1.30066800 M
 O               -1    5.80870400   11.79364200    0.93785800 M
 H               -1    5.44365800   12.18061800    1.58772400 M
 O               -1    2.18565200    1.81877700    0.68762100 M
 H               -1    1.69589600    2.49926100    0.64401300 M
 O               -1    9.24738200    8.58838800   -2.62904300 M
 O               -1    2.93573100   11.61437700    0.78982400 M
 H               -1    2.15741800   11.32284500    0.66957500 M
 O               -1    5.20561100   11.89783000   -2.63573100 M
 O               -1    0.18125700   10.32036800   -3.12099300 M
 O               -1    0.31167400   11.08062400    0.45455800 M
 H               -1   -0.03894900   11.82939200    0.60475700 M
 O               -1    9.40960400    4.98970300    0.72304100 M
 H               -1   10.17668200    5.02506200    0.38236900 M
 O               -1    7.89398300    2.49106000    0.60663900 M
 H               -1    8.04208000    1.66938400    0.51887400 M
 O               -1    8.18985500   10.29997500    0.95623900 M
 H               -1    7.46848300   10.72779400    0.99865600 M
 O               -1    9.79678300    5.53987100   -4.25321100 M
 H               -1   10.01849100    4.76640000   -4.49421400 M
 O               -1    8.38640700   11.20554200   -3.89886200 M
 H               -1    8.93715600   11.26813100   -4.53005400 M
 O               -1   -0.45983300    2.62040500   -4.28123900 M
 H               -1   -0.02192600    1.94654200   -4.52713200 M
 O               -1    9.71684500    7.82373000    0.92248600 M
 H               -1    9.58578300    7.02117200    0.71298100 M
 O               -1    2.83765200   12.68063000   -4.20667700 M
 H               -1    3.43788400   13.26700500   -4.24458900 M
 C               -1    7.49967600    2.88490200   -1.74757600 M
 H               -1    7.48104000    1.89929600   -1.91358700 M
 C               -1   -1.49160700    5.15308400   -0.72645700 M
 H               -1   -2.16647300    4.43167400   -0.88278500 M
 C               -1   -1.40708800    6.01278800   -1.97858000 M
 H               -1   -2.28138600    6.47209400   -2.13640800 M
 C               -1    7.92051300    9.16895300   -2.64153000 M
 H               -1    7.24875600    8.42823600   -2.61295500 M
 C               -1   -0.64919200    8.37695400   -1.92954300 M
 H               -1   -1.61978900    8.52534100   -2.11952000 M
 C               -1    5.92393000   11.70200000   -1.43168100 M
 H               -1    6.72519800   12.29984000   -1.42149200 M
 O               -1    5.21126600    1.36806200   -4.44716800 M
 H               -1    4.53819200    1.01461700   -4.80382500 M
 C               -1    8.77890700    5.43267500   -1.57337600 M
 H               -1    9.74802600    5.32277000   -1.79492500 M
 C               -1    2.21965800    2.16531000   -1.72126300 M
 H               -1    1.44157100    1.54936600   -1.84408800 M
 C               -1    5.08411600    2.46846500   -1.62802300 M
 H               -1    5.40756500    1.53355700   -1.77707200 M
 C               -1   -0.14643200    4.50251600   -0.47262300 M
 H               -1    0.51805400    5.21115000   -0.23440900 M
 C               -1    8.12104600    9.35423600   -0.11517500 M
 H               -1    7.42589700    8.67026600    0.10537200 M
 C               -1   -0.27013300    9.03688000   -0.61715600 M
 H               -1    0.63711700    8.71164800   -0.34993900 M