%chk=OniomModel.chk
%mem=30GB
%nprocshared=24
#p oniom(pbe1pbe/6-31+g* em=gd3bj:pm6) opt freq


mo_20240222_0m


0 1 0 1 0 1
 O                         0      -1.344183      -0.749654       7.617714     H
 H                         0      -1.150566      -0.800264       8.567834     H
 N                         0      -0.308637       0.227263       1.422385     H
 H                         0       0.442325       0.796128       1.037888     H
 O                         0       0.860191      -0.351973       7.688625     H
 C                         0      -0.300112       0.091998       2.790128     H
 C                         0       0.911242       0.179486       3.501828     H
 H                         0       1.830784       0.402513       2.954616     H
 C                         0       0.934725      -0.006859       4.866142     H
 H                         0       1.872892       0.059592       5.414727     H
 C                         0      -1.481396      -0.204078       3.499288     H
 H                         0      -2.423404      -0.269419       2.957947     H
 C                         0      -0.244185      -0.289329       5.577506     H
 C                         0      -1.451888      -0.382751       4.867656     H
 H                         0      -2.375062      -0.595424       5.399604     H
 C                         0      -0.154811      -0.452386       7.020572     H
 H                         0      -1.210819       0.445307       0.995916     H
 O                        -1       4.665283       2.082955       3.339774     M
 H                        -1       4.464419       2.579000       2.680146     M
 O                        -1       4.791773      -1.351165       6.792088     M
 O                        -1      -2.328892      -3.732117       5.132954     M
 O                        -1       5.562697      -0.544073       3.307661     M
 H                        -1       5.345933       0.177572       2.949191     M
 O                         0       3.970529       0.375786       5.460546     M
 O                        -1       2.106542      -3.273702       5.169789     M
 O                        -1      -4.144427      -3.661498       6.589739     M
 O                         0      -4.883020      -0.439612       5.017500     M
 O                        -1      -1.101879      -4.974129       2.968324     M
 H                        -1      -1.873765      -4.886123       2.740434     M
 O                        -1       4.052420      -3.038408       3.097628     M
 H                        -1       3.959788      -2.640048       2.363964     M
 O                        -1       0.914036      -4.731872       6.564393     M
 O                        -1       1.338637       3.639488       5.387895     M
 O                        -1      -2.992019       3.259641       5.024168     M
 O                        -1      -2.571784       4.734203       2.792072     M
 H                        -1      -2.236567       5.150071       2.143985     M
 O                        -1       1.781500      -4.945323       2.998788     M
 H                        -1       2.219419      -4.230573       3.045485     M
 O                        -1      -5.762551       1.266877       6.344199     M
 O                        -1       0.306595       4.767968       2.939785     M
 H                        -1       1.104415       4.534465       3.058871     M
 O                        -1      -1.977498       4.867051       6.366186     M
 O                        -1       3.150139       3.664638       6.845293     M
 O                        -1       2.963080       4.428926       3.273118     M
 H                        -1       3.257148       5.202304       3.126289     M
 O                        -1      -5.657838      -2.319063       2.976205     M
 H                        -1      -6.425369      -2.342230       3.316904     M
 O                        -1      -3.960966      -4.698842       3.081805     M
 H                        -1      -4.047668      -5.529622       3.165911     M
 O                        -1      -4.835537       3.068058       2.766694     M
 H                        -1      -4.147906       3.548410       2.726288     M
 O                        -1      -6.083958      -1.821156       7.954778     M
 H                        -1      -6.247619      -2.610004       8.192321     M
 O                        -1      -5.097947       3.935063       7.625721     M
 H                        -1      -5.651717       3.953819       8.257092     M
 O                        -1       4.361024      -3.971581       7.971579     M
 H                        -1       3.974368      -4.677162       8.214417     M
 O                        -1      -6.174563       0.485206       2.789245     M
 H                        -1      -5.984274      -0.306333       2.995220     M
 O                        -1       0.326103       5.816451       7.940968     M
 H                        -1      -0.315980       6.356496       7.981374     M
 C                        -1      -3.596584      -4.287242       5.437803     M
 H                        -1      -3.504835      -5.269473       5.599456     M
 C                        -1       5.201433      -1.353626       4.428203     M
 H                        -1       5.927996      -2.023653       4.581450     M
 C                        -1       5.053559      -0.508110       5.684101     M
 H                        -1       5.891390       0.014104       5.844103     M
 C                        -1      -4.482419       1.944241       6.359470     M
 H                         0      -3.757554       1.255547       6.327731     M
 C                         0       4.122312       1.793493       5.645396     M
 H                        -1       5.079254       2.012652       5.836187     M
 C                        -1      -2.679503       4.623785       5.161164     M
 H                        -1      -3.522926       5.160559       5.153488     M
 O                        -1      -1.201484      -5.642014       8.131036     M
 H                        -1      -0.503979      -5.946113       8.486237     M
 C                         0      -5.061373      -1.840673       5.274662     M
 H                        -1      -6.019628      -2.023166       5.495563     M
 C                        -1       1.722270      -4.612926       5.409176     M
 H                        -1       2.543938      -5.169970       5.529403     M
 C                        -1      -1.156802      -4.522753       5.316806     M
 H                        -1      -1.409960      -5.479735       5.461665     M
 C                        -1       3.908200      -2.101089       4.171273     M
 H                         0       3.192923      -1.442670       3.936085     M
 C                        -1      -4.696563       2.125304       3.833927     M
 H                         0      -3.952613       1.495784       3.610471     M
 C                        -1       3.695113       2.429270       4.335879     M
 H                         0       2.814455       2.038797       4.067076     M
 C                         0       3.533984      -2.055826       6.690263     M
 H                         0       2.788723      -1.389612       6.680049     M
 C                        -1      -0.500772       4.274376       4.013064     M
 H                        -1      -0.667726       3.297810       3.873490     M
 C                        -1      -4.501650      -4.044405       4.230250     M
 H                        -1      -5.397726      -4.443882       4.424978     M
 C                        -1      -4.686223      -2.560280       3.981425     M
 H                         0      -3.813700      -2.190127       3.663994     M
 C                        -1      -0.340610      -4.016210       6.496707     M
 H                         0      -0.152752      -3.043175       6.367238     M
 C                        -1      -5.952213       0.462526       5.193388     M
 H                        -1      -6.808852      -0.045919       5.278080     M
 C                        -1       3.475752      -2.883317       5.405274     M
 H                        -1       4.046080      -3.699223       5.503140     M
 C                        -1       3.527952       3.927974       4.483397     M
 H                        -1       4.418210       4.353667       4.643820     M
 C                        -1      -0.357805      -4.387758       4.034707     M
 H                        -1      -0.205258      -3.419591       3.838966     M
 C                        -1       0.979600      -5.090991       4.170980     M
 H                        -1       0.795371      -6.066269       4.290135     M
 C                        -1      -1.822704       5.012987       3.976802     M
 H                        -1      -1.643061       5.996342       4.019440     M
 C                        -1      -5.994837       1.333743       3.929590     M
 H                        -1      -6.764495       1.968267       3.992311     M
 C                        -1      -0.748527       4.126074       6.498766     M
 H                        -1      -0.947699       3.145854       6.475023     M
 C                        -1      -4.360648       2.832294       5.131656     M
 H                        -1      -4.951880       3.632160       5.238133     M
 C                        -1       3.422613      -2.900423       7.945459     M
 H                        -1       3.568567      -2.323857       8.737178     M
 H                        -1       2.506511      -3.271327       8.005986     M
 C                         0      -4.180283      -2.223251       6.461668     M
 H                         0      -3.251831      -1.891779       6.294000     M
 C                        -1       0.185302       4.476215       5.356755     M
 H                        -1       0.467747       5.431873       5.442441     M
 C                        -1       2.595118       4.206309       5.668833     M
 H                        -1       2.491987       5.194918       5.780009     M
 C                         0       3.245280       2.230347       6.813890     M
 H                         0       2.325216       1.900930       6.601034     M
 C                        -1      -4.670334      -1.659068       7.778183     M
 H                        -1      -4.197279      -2.111061       8.520986     M
 H                        -1      -4.447647      -0.694725       7.819766     M
 C                        -1      -4.367172       2.706349       7.669372     M
 H                        -1      -4.714185       2.144643       8.407411     M
 H                        -1      -3.413755       2.898471       7.854241     M
 C                        -1      -1.018092      -4.211562       7.835747     M
 H                        -1      -0.468163      -3.796330       8.546666     M
 H                        -1      -1.899520      -3.760858       7.827630     M
 C                        -1      -0.173796       4.493742       7.865700     M
 H                        -1      -0.881022       4.380493       8.549702     M
 H                        -1       0.557969       3.863292       8.084268     M
 O                        -1       5.078145       1.823035       8.341548     M
 H                        -1       5.167890       2.614827       8.607390     M
 C                        -1       3.652888       1.527705       8.164927     M
 H                        -1       3.123794       1.889139       8.920400     M
 H                         0       3.502045       0.550249       8.110501     M
 O                        -1     -13.398159      -2.273932      -3.433043     M
 H                        -1     -13.270405      -2.769732      -4.110817     M
 O                        -1     -13.147506       1.158923       0.013743     M
 O                        -1      -6.249979       3.540627      -2.410832     M
 O                        -1     -14.293674       0.353089      -3.366181     M
 H                        -1     -14.117191      -0.368416      -3.746413     M
 O                        -1     -12.476335      -0.567524      -1.400016     M
 O                        -1     -10.655076       3.082107      -1.890892     M
 O                        -1      -4.286467       3.469512      -1.160658     M
 O                        -1      -3.723821       0.248212      -2.805211     M
 O                        -1      -7.705712       4.783403      -4.428352     M
 H                        -1      -6.963169       4.695499      -4.739063     M
 O                        -1     -12.815142       2.847534      -3.738684     M
 H                        -1     -12.803043       2.449445      -4.478220     M
 O                        -1      -9.317528       4.539795      -0.634060     M
 O                        -1      -9.868111      -3.831147      -1.760319     M
 O                        -1      -5.602901      -3.451081      -2.593805     M
 O                        -1      -6.263873      -4.924832      -4.767336     M
 H                        -1      -6.667846      -5.340473      -5.375168     M
 O                        -1     -10.568490       4.754531      -4.083781     M
 H                        -1     -10.998822       4.039751      -3.989883     M
 O                        -1      -2.704948      -1.458745      -1.582915     M
 O                        -1      -9.108999      -4.958708      -4.306757     M
 H                        -1      -9.889079      -4.725264      -4.101328     M
 O                        -1      -6.465121      -5.059002      -1.149783     M
 O                        -1     -11.509955      -3.856866      -0.114151     M
 O                        -1     -11.713412      -4.619845      -3.685709     M
 H                        -1     -12.021749      -5.393175      -3.799891     M
 O                        -1      -3.175995       2.128429      -4.918119     M
 H                        -1      -2.375899       2.151486      -4.663107     M
 O                        -1      -4.851298       4.508131      -4.627305     M
 H                        -1      -4.755828       5.338886      -4.552853     M
 O                        -1      -4.016342      -3.258632      -5.038715     M
 H                        -1      -4.704389      -3.738987      -5.004095     M
 O                         0      -2.209650       1.628568      -0.015725     M
 H                         0      -2.021168       2.417490       0.202701     M
 O                        -1      -3.225952      -4.127412      -0.237559     M
 H                        -1      -2.606659      -4.146387       0.329679     M
 O                        -1     -12.590601       3.778920       1.140203     M
 H                        -1     -12.179764       4.484420       1.339705     M
 O                        -1      -2.682786      -0.675762      -5.161316     M
 H                        -1      -2.849473       0.115698      -4.935536     M
 O                        -1      -8.583355      -6.009024       0.666373     M
 H                        -1      -7.940605      -6.549067       0.636346     M
 C                        -1      -4.956699       4.095662      -2.245777     M
 H                        -1      -5.030261       5.077832      -2.074727     M
 C                        -1     -13.812301       1.162243      -2.291406     M
 H                        -1     -14.517817       1.832200      -2.059628     M
 C                        -1     -13.528425       0.316272      -1.059419     M
 H                        -1     -14.343833      -0.206018      -0.809234     M
 C                        -1      -3.975800      -2.136139      -1.428440     M
 H                        -1      -4.699692      -1.447445      -1.380730     M
 C                        -1     -12.606993      -1.985298      -1.200246     M
 H                        -1     -13.537439      -2.204546      -0.906361     M
 C                        -1      -5.898649      -4.815281      -2.424058     M
 H                        -1      -5.061099      -5.352036      -2.523822     M
 O                        -1      -7.043924       5.449402       0.692982     M
 H                        -1      -7.698447       5.753361       1.122204     M
 C                        -1      -3.518371       1.649186      -2.568516     M
 H                        -1      -2.541743       1.831618      -2.453319     M
 C                        -1     -10.246873       4.421254      -1.694335     M
 H                        -1     -11.050628       4.978235      -1.485049     M
 C                        -1      -7.395128       4.331169      -2.100017     M
 H                        -1      -7.127669       5.288103      -1.983267     M
 C                        -1     -12.554866       1.909823      -2.687496     M
 H                        -1     -11.869502       1.251504      -2.999492     M
 C                        -1      -4.038235      -2.316275      -3.962343     M
 H                        -1      -4.802097      -1.686688      -4.103143     M
 C                        -1     -12.325097      -2.620588      -2.548760     M
 H                        -1     -11.478979      -2.230000      -2.911814     M
 C                        -1     -11.908298       1.863646      -0.224325     M
 H                        -1     -11.168504       1.197455      -0.315964     M
 C                        -1      -8.189440      -4.465492      -3.327700     M
 H                        -1      -8.038675      -3.488872      -3.484284     M
 C                        -1      -4.188662       3.853285      -3.544881     M
 H                        -1      -3.276690       4.252709      -3.448843     M
 C                        -1      -4.032341       2.369255      -3.812884     M
 H                        -1      -4.934275       1.999200      -4.033450     M
 C                        -1      -8.077750       3.824182      -0.838368     M
 H                        -1      -8.278721       2.851187      -0.946938     M
 C                        -1      -2.641845      -0.653968      -2.747248     M
 H                        -1      -1.780969      -0.145534      -2.756259     M
 C                        -1     -11.990466       2.691608      -1.507701     M
 H                        -1     -12.546712       3.507467      -1.347951     M
 C                        -1     -12.142881      -4.119343      -2.420890     M
 H                        -1     -13.010356      -4.545112      -2.164535     M
 C                        -1      -8.329022       4.196630      -3.287436     M
 H                        -1      -8.502117       3.228528      -3.465731     M
 C                        -1      -9.643689       4.899783      -3.005927     M
 H                        -1      -9.447450       5.875025      -2.907213     M
 C                        -1      -6.879352      -5.204063      -3.508115     M
 H                        -1      -7.053396      -6.187442      -3.446503     M
 C                        -1      -2.737254      -1.524722      -4.008480     M
 H                        -1      -1.965258      -2.159251      -4.030267     M
 C                        -1      -7.672203      -4.318094      -0.883763     M
 H                        -1      -7.476886      -3.337865      -0.928712     M
 C                        -1      -4.230603      -3.023742      -2.635995     M
 H                        -1      -3.631303      -3.823635      -2.594892     M
 C                        -1     -11.660650       2.707790       1.011555     M
 H                        -1     -11.719543       2.130928       1.814261     M
 H                        -1     -10.743501       3.078686       0.972002     M
 C                        -1      -4.264909       2.031281      -1.292408     M
 H                        -1      -5.206016       1.699884      -1.357983     M
 C                        -1      -8.724960      -4.667836      -1.917304     M
 H                        -1      -8.996501      -5.623535      -1.801685     M
 C                        -1     -11.086393      -4.398092      -1.344303     M
 H                        -1     -10.971777      -5.386740      -1.245393     M
 C                        -1     -11.607823      -2.422562      -0.134476     M
 H                        -1     -10.716538      -2.093053      -0.446231     M
 C                         0      -3.634280       1.466605      -0.037368     M
 H                        -1      -4.023448       1.918406       0.752732     M
 H                         0      -3.851033       0.502298       0.027936     M
 C                        -1      -3.947590      -2.898728      -0.114060     M
 H                        -1      -3.522183      -2.337285       0.581960     M
 H                        -1      -4.875078      -3.090933       0.173559     M
 C                        -1      -7.258439       4.019054       0.418920     M
 H                        -1      -7.727605       3.603551       1.185396     M
 H                        -1      -6.383057       3.568374       0.314600     M
 C                        -1      -8.094513      -4.686274       0.537540     M
 H                        -1      -7.317039      -4.573263       1.140422     M
 H                        -1      -8.798180      -4.055921       0.834808     M
 O                        -1     -13.263335      -2.015849       1.584025     M
 H                        -1     -13.323583      -2.807740       1.857777     M
 C                        -1     -11.865817      -1.720426       1.253203     M
 H                        -1     -11.257433      -2.082122       1.946362     M
 H                        -1     -11.721687      -0.742943       1.183010     M
 O                        -1      -0.711333      -4.854147       0.347421     M
 H                        -1      -0.547723      -4.347486       1.009270     M
 O                        -1      -0.583214      -8.272882      -3.120067     M
 O                        -1       6.694770     -10.126199      -1.470309     M
 O                        -1      -1.411330      -7.540640       0.367769     M
 H                        -1      -1.248654      -6.806493       0.729463     M
 O                        -1       0.107837      -6.495659      -1.780766     M
 O                        -1       2.237541      -9.998019      -1.505845     M
 O                        -1       8.499819      -9.914612      -2.926469     M
 O                        -1       8.997556      -6.653787      -1.339875     M
 O                        -1       5.563658     -11.465399       0.688605     M
 H                        -1       6.326923     -11.321366       0.917009     M
 O                        -1       0.279908      -9.916933       0.567016     M
 H                        -1       0.342845      -9.516046       1.302450     M
 O                        -1       3.534733     -11.357498      -2.906688     M
 O                        -1       2.490303      -3.046010      -1.693249     M
 O                        -1       6.837266      -3.105059      -1.330494     M
 O                        -1       6.309137      -1.675632       0.908033     M
 H                        -1       5.944091      -1.288656       1.557898     M
 O                        -1       2.686085     -11.650497       0.657795     M
 H                        -1       2.196329     -10.970013       0.614187     M
 O                        -1       9.747815      -4.880886      -2.658869     M
 O                        -1       3.436164      -1.854896       0.759998     M
 H                        -1       2.657851      -2.146429       0.639749     M
 O                        -1       5.706044      -1.571444      -2.665557     M
 O                        -1       0.681689      -3.148906      -3.150819     M
 O                        -1       0.812069      -2.388667       0.424719     M
 H                         0       0.461346      -1.639715       0.574900     M
 O                        -1       9.910037      -8.479571       0.693215     M
 H                        -1      10.677115      -8.444212       0.352543     M
 O                        -1       8.394416     -10.978214       0.576813     M
 H                        -1       8.542513     -11.799890       0.489048     M
 O                        -1       8.690288      -3.169299       0.926413     M
 H                        -1       7.968916      -2.741480       0.968831     M
 O                        -1      10.297216      -7.929403      -4.283037     M
 H                        -1      10.518924      -8.702874      -4.524040     M
 O                        -1       8.886840      -2.263731      -3.928688     M
 H                        -1       9.437589      -2.201143      -4.559879     M
 O                        -1       0.040599     -10.848868      -4.311065     M
 H                        -1       0.478507     -11.522732      -4.556957     M
 O                        -1      10.217278      -5.645544       0.892660     M
 H                        -1      10.086216      -6.448102       0.683155     M
 O                        -1       3.338085      -0.788644      -4.236502     M
 H                        -1       3.938317      -0.202269      -4.274415     M
 C                        -1       8.000109     -10.584372      -1.777402     M
 H                        -1       7.981472     -11.569978      -1.943413     M
 C                        -1      -0.991174      -8.316190      -0.756283     M
 H                        -1      -1.666040      -9.037599      -0.912611     M
 C                        -1      -0.906655      -7.456486      -2.008406     M
 H                        -1      -1.780953      -6.997180      -2.166234     M
 C                        -1       8.420946      -4.300321      -2.671355     M
 H                        -1       7.749189      -5.041037      -2.642781     M
 C                        -1      -0.148759      -5.092320      -1.959369     M
 H                        -1      -1.119356      -4.943933      -2.149346     M
 C                        -1       6.424363      -1.767274      -1.461506     M
 H                        -1       7.225631      -1.169434      -1.451318     M
 O                        -1       5.711699     -12.101211      -4.476993     M
 H                        -1       5.038625     -12.454657      -4.833651     M
 C                        -1       9.279340      -8.036599      -1.603202     M
 H                        -1      10.248459      -8.146503      -1.824751     M
 C                        -1       2.720091     -11.303964      -1.751089     M
 H                        -1       1.942004     -11.919907      -1.873914     M
 C                        -1       5.584549     -11.000809      -1.657849     M
 H                        -1       5.907998     -11.935717      -1.806897     M
 C                        -1       0.354001      -8.966758      -0.502449     M
 H                        -1       1.018486      -8.258124      -0.264234     M
 C                        -1       8.621479      -4.115037      -0.145001     M
 H                        -1       7.926330      -4.799008       0.075547     M
 C                        -1       0.230300      -4.432393      -0.646982     M
 H                        -1       1.137550      -4.757626      -0.379765     M
 C                        -1       0.723412      -8.882711      -3.021152     M
 H                        -1       1.417185      -8.163084      -3.007870     M
 C                        -1       4.277755      -2.282466      -0.315321     M
 H                        -1       4.516738      -3.244558      -0.180040     M
 C                        -1       8.884858     -10.280387      -0.568638     M
 H                        -1       9.808075     -10.611405      -0.764984     M
 C                        -1       8.958835      -8.787773      -0.313221     M
 H                        -1       8.061302      -8.484793       0.005700     M
 C                        -1       4.732826     -10.551014      -2.835632     M
 H                        -1       4.473304      -9.595185      -2.701892     M
 C                        -1       9.996829      -5.674028      -1.511596     M
 H                        -1      10.888821      -6.117125      -1.598395     M
 C                        -1       0.843099      -9.709274      -1.739826     M
 H                        -1       0.334871     -10.564811      -1.841393     M
 C                        -1       0.285785      -2.924766      -0.787858     M
 H                        -1      -0.633653      -2.565616      -0.946529     M
 C                        -1       4.777949     -10.931146      -0.375296     M
 H                        -1       4.554011      -9.977844      -0.175300     M
 C                        -1       3.496391     -11.731073      -0.514898     M
 H                        -1       3.752463     -12.689455      -0.638335     M
 C                        -1       5.541241      -1.447966      -0.275575     M
 H                        -1       5.289116      -0.480473      -0.313893     M
 C                        -1       9.974895      -4.807648      -0.243950     M
 H                        -1      10.695336      -4.117490      -0.303738     M
 C                        -1       4.535423      -2.400980      -2.801614     M
 H                        -1       4.806787      -3.363814      -2.782173     M
 C                        -1       8.233815      -3.429191      -1.439645     M
 H                        -1       8.764046      -2.587195      -1.542487     M
 C                        -1       0.896943      -9.711156      -4.280053     M
 H                        -1       0.708478      -9.143514      -5.069238     M
 H                        -1       1.838033     -10.012786      -4.342069     M
 C                        -1       8.428873      -8.478250      -2.792033     M
 H                        -1       7.478412      -8.217332      -2.623053     M
 C                        -1       3.578374      -2.126153      -1.658219     M